
Log started (V11.0.0) Wed Apr 16 12:08:41 2008

Tried aggregator 1 time.
Reduced MIP has 140 rows, 4001 columns, and 8040 nonzeros.
Presolve time =    0.03 sec.
Clique table members: 100.
MIP emphasis: balance optimality and feasibility.
MIP search method: dynamic search.
Parallel mode: none, using 1 thread.
Root relaxation solution time =    0.09 sec.

        Nodes                                         Cuts/
   Node  Left     Objective  IInf  Best Integer     Best Node    ItCnt     Gap

*     0+    0                         5234.0000       30.1104      567   99.42%
*     0+    0                           37.0000       30.1104      567   18.62%
      0     0       31.0000    61       37.0000      Fract: 6      576   16.22%

Repeating presolve.
Tried aggregator 1 time.
MIP Presolve eliminated 0 rows and 2769 columns.
MIP Presolve modified 189 coefficients.
Reduced MIP has 140 rows, 1232 columns, and 2502 nonzeros.
Tried aggregator 1 time.
Represolve time =    0.05 sec.
Clique table members: 337.
MIP emphasis: balance optimality and feasibility.
MIP search method: dynamic search.
Parallel mode: none, using 1 thread.
Root relaxation solution time =    0.03 sec.

        Nodes                                         Cuts/
   Node  Left     Objective  IInf  Best Integer     Best Node    ItCnt     Gap

      0     0       31.0000    69       37.0000       31.0000      383   16.22%
      0     2       31.0000    69       37.0000       31.0000      383   16.22%
    100    91       34.0000    50       37.0000       31.0000     2120   16.22%
    200   174       35.0000    40       37.0000       31.0000     3732   16.22%
    300   264       36.0000    54       37.0000       31.0000     5509   16.22%
*   380+  230                           36.0000       31.0000     7136   13.89%
    400   252       33.0000    73       36.0000       31.0000     7417   13.89%
    500   327       32.0000    64       36.0000       31.0000     9843   13.89%
*   514+  226                           35.0000       34.0000    12168    2.86%
    600   240        cutoff             35.0000       34.0000    17421    2.86%
*   664+    2                           34.0000       34.0000    27317    0.00%

Clique cuts applied:  3
Cover cuts applied:  109
Flow cuts applied:  2
Mixed integer rounding cuts applied:  32
Zero-half cuts applied:  6
Gomory fractional cuts applied:  3

Solution pool: 5 solutions saved.

MIP - Integer optimal solution:  Objective = 3.4000000000e+001
Solution time =    8.14 sec.  Iterations = 27317  Nodes = 664


Incumbent solution
Variable Name           Solution Value
Cmax                         34.000000
X_1_19                        1.000000
X_2_7                         1.000000
X_3_36                        1.000000
X_4_26                        1.000000
X_5_18                        1.000000
X_6_22                        1.000000
X_7_37                        1.000000
X_8_23                        1.000000
X_9_17                        1.000000
X_10_32                       1.000000
X_11_23                       1.000000
X_12_12                       1.000000
X_13_30                       1.000000
X_14_34                       1.000000
X_15_20                       1.000000
X_16_4                        1.000000
X_17_33                       1.000000
X_18_1                        1.000000
X_19_17                       1.000000
X_20_1                        1.000000
X_21_13                       1.000000
X_22_3                        1.000000
X_23_34                       1.000000
X_24_38                       1.000000
X_25_11                       1.000000
X_26_21                       1.000000
X_27_5                        1.000000
X_28_38                       1.000000
X_29_13                       1.000000
X_30_4                        1.000000
X_31_8                        1.000000
X_32_30                       1.000000
X_33_24                       1.000000
X_34_39                       1.000000
X_35_33                       1.000000
X_36_25                       1.000000
X_37_9                        1.000000
X_38_19                       1.000000
X_39_21                       1.000000
X_40_5                        1.000000
X_41_17                       1.000000
X_42_2                        1.000000
X_43_1                        1.000000
X_44_31                       1.000000
X_45_3                        1.000000
X_46_12                       1.000000
X_47_15                       1.000000
X_48_35                       1.000000
X_49_12                       1.000000
X_50_16                       1.000000
X_51_9                        1.000000
X_52_32                       1.000000
X_53_10                       1.000000
X_54_14                       1.000000
X_55_33                       1.000000
X_56_6                        1.000000
X_57_39                       1.000000
X_58_38                       1.000000
X_59_7                        1.000000
X_60_25                       1.000000
X_61_29                       1.000000
X_62_20                       1.000000
X_63_6                        1.000000
X_64_29                       1.000000
X_65_11                       1.000000
X_66_15                       1.000000
X_67_10                       1.000000
X_68_13                       1.000000
X_69_19                       1.000000
X_70_26                       1.000000
X_71_2                        1.000000
X_72_34                       1.000000
X_73_24                       1.000000
X_74_3                        1.000000
X_75_40                       1.000000
X_76_14                       1.000000
X_77_40                       1.000000
X_78_37                       1.000000
X_79_23                       1.000000
X_80_18                       1.000000
X_81_14                       1.000000
X_82_31                       1.000000
X_83_8                        1.000000
X_84_10                       1.000000
X_85_2                        1.000000
X_86_36                       1.000000
X_87_37                       1.000000
X_88_27                       1.000000
X_89_27                       1.000000
X_90_31                       1.000000
X_91_39                       1.000000
X_92_22                       1.000000
X_93_11                       1.000000
X_94_28                       1.000000
X_95_35                       1.000000
X_96_16                       1.000000
X_97_8                        1.000000
X_98_28                       1.000000
X_99_21                       1.000000
X_100_4                       1.000000
All other variables in the range 1-4001 are 0.
